<?xml version = "1.0" encoding="UTF-8" standalone="yes"?>
<CPLEXSolution version="1.2">
 <header
   problemName=""
   solutionName="p0"
   solutionIndex="-1"
   objectiveValue="69"
   solutionTypeValue="3"
   solutionTypeString="primal"
   solutionStatusValue="127"
   solutionStatusString="integer feasible solution"
   solutionMethodString="mip"
   primalFeasible="0"
   dualFeasible="0"
   writeLevel="1"/>
 <quality
   epInt="1.0000000000000001e-05"
   epRHS="9.9999999999999995e-07"
   maxIntInfeas="0"
   maxPrimalInfeas="4.4408920985006262e-16"
   maxX="69"
   maxSlack="76"/>
 <linearConstraints>
  <constraint index="0" slack="0"/>
  <constraint index="1" slack="4.4408920985006262e-16"/>
  <constraint index="2" slack="0"/>
  <constraint index="3" slack="0"/>
  <constraint index="4" slack="-5"/>
  <constraint index="5" slack="0"/>
  <constraint index="6" slack="0"/>
  <constraint index="7" slack="0"/>
  <constraint index="8" slack="0"/>
  <constraint index="9" slack="0"/>
  <constraint index="10" slack="-67"/>
  <constraint index="11" slack="-11"/>
  <constraint index="12" slack="-62"/>
  <constraint index="13" slack="-16"/>
  <constraint index="14" slack="-39"/>
  <constraint index="15" slack="-34"/>
  <constraint index="16" slack="-15"/>
  <constraint index="17" slack="-61"/>
  <constraint index="18" slack="-74"/>
  <constraint index="19" slack="0"/>
  <constraint index="20" slack="-51"/>
  <constraint index="21" slack="-18"/>
  <constraint index="22" slack="-27"/>
  <constraint index="23" slack="-45"/>
  <constraint index="24" slack="-56"/>
  <constraint index="25" slack="-13"/>
  <constraint index="26" slack="-32"/>
  <constraint index="27" slack="-40"/>
  <constraint index="28" slack="-50"/>
  <constraint index="29" slack="-17"/>
  <constraint index="30" slack="-73"/>
  <constraint index="31" slack="0"/>
  <constraint index="32" slack="-46"/>
  <constraint index="33" slack="-27"/>
  <constraint index="34" slack="-34"/>
  <constraint index="35" slack="-41"/>
  <constraint index="36" slack="-26"/>
  <constraint index="37" slack="-47"/>
  <constraint index="38" slack="-49"/>
  <constraint index="39" slack="-19"/>
  <constraint index="40" slack="-37"/>
  <constraint index="41" slack="-33"/>
  <constraint index="42" slack="-29"/>
  <constraint index="43" slack="-39"/>
  <constraint index="44" slack="-64"/>
  <constraint index="45" slack="-6"/>
  <constraint index="46" slack="-56"/>
  <constraint index="47" slack="-12"/>
  <constraint index="48" slack="-70"/>
  <constraint index="49" slack="0"/>
  <constraint index="50" slack="-61"/>
  <constraint index="51" slack="-11"/>
  <constraint index="52" slack="-57"/>
  <constraint index="53" slack="-21"/>
  <constraint index="54" slack="-53"/>
  <constraint index="55" slack="-25"/>
  <constraint index="56" slack="-26"/>
  <constraint index="57" slack="-53"/>
  <constraint index="58" slack="-70"/>
  <constraint index="59" slack="0"/>
  <constraint index="60" slack="-66"/>
  <constraint index="61" slack="-4"/>
  <constraint index="62" slack="-39"/>
  <constraint index="63" slack="-32"/>
  <constraint index="64" slack="-76"/>
  <constraint index="65" slack="0"/>
  <constraint index="66" slack="-49"/>
  <constraint index="67" slack="-28"/>
  <constraint index="68" slack="-53"/>
  <constraint index="69" slack="-24"/>
  <constraint index="70" slack="-63"/>
  <constraint index="71" slack="-42"/>
  <constraint index="72" slack="-30"/>
  <constraint index="73" slack="-18"/>
  <constraint index="74" slack="0"/>
 </linearConstraints>
 <variables>
  <variable name="x_0_0" index="0" value="0"/>
  <variable name="x_0_1" index="1" value="12"/>
  <variable name="x_0_2" index="2" value="17"/>
  <variable name="x_0_3" index="3" value="35"/>
  <variable name="x_0_4" index="4" value="62"/>
  <variable name="x_1_0" index="5" value="1"/>
  <variable name="x_1_1" index="6" value="4"/>
  <variable name="x_1_2" index="7" value="31"/>
  <variable name="x_1_3" index="8" value="45"/>
  <variable name="x_1_4" index="9" value="51"/>
  <variable name="x_2_0" index="10" value="3.9999999999999996"/>
  <variable name="x_2_1" index="11" value="17"/>
  <variable name="x_2_2" index="12" value="27"/>
  <variable name="x_2_3" index="13" value="31"/>
  <variable name="x_2_4" index="14" value="59"/>
  <variable name="z_0_0_1" index="15" value="1"/>
  <variable name="z_0_0_2" index="16" value="1"/>
  <variable name="z_0_0_3" index="17" value="1"/>
  <variable name="z_0_0_4" index="18" value="1"/>
  <variable name="z_0_1_2" index="19" value="1"/>
  <variable name="z_0_1_3" index="20" value="1"/>
  <variable name="z_0_1_4" index="21" value="1"/>
  <variable name="z_0_2_3" index="22" value="1"/>
  <variable name="z_0_2_4" index="23" value="1"/>
  <variable name="z_0_3_4" index="24" value="1"/>
  <variable name="z_1_0_1" index="25" value="1"/>
  <variable name="z_1_0_2" index="26" value="1"/>
  <variable name="z_1_0_3" index="27" value="1"/>
  <variable name="z_1_0_4" index="28" value="1"/>
  <variable name="z_1_1_2" index="29" value="1"/>
  <variable name="z_1_1_3" index="30" value="1"/>
  <variable name="z_1_1_4" index="31" value="1"/>
  <variable name="z_1_2_3" index="32" value="1"/>
  <variable name="z_1_2_4" index="33" value="1"/>
  <variable name="z_1_3_4" index="34" value="1"/>
  <variable name="z_2_0_1" index="35" value="1"/>
  <variable name="z_2_0_2" index="36" value="1"/>
  <variable name="z_2_0_3" index="37" value="1"/>
  <variable name="z_2_0_4" index="38" value="1"/>
  <variable name="z_2_1_2" index="39" value="1"/>
  <variable name="z_2_1_3" index="40" value="1"/>
  <variable name="z_2_1_4" index="41" value="1"/>
  <variable name="z_2_2_3" index="42" value="1"/>
  <variable name="z_2_2_4" index="43" value="1"/>
  <variable name="z_2_3_4" index="44" value="1"/>
  <variable name="cmax" index="45" value="69"/>
 </variables>
</CPLEXSolution>
